\* Training_Provider_Optimization *\
Maximize
Performance_Optimization_for_Provider: 0.91393442623 O_pass_var
 + 67.05 O_score_var
Subject To
Norm: 16 I_batch_var + 488 I_cand_var + 7 I_dist_var + 2 I_sec_var = 1
SSC_ISC_PIA: - I_batch_var - 56 I_cand_var - I_dist_var - I_sec_var
 + O_pass_var + 76.955 O_score_var <= 0
SSC_MES_PIA: - 60 I_batch_var - 3174 I_cand_var - 3 I_dist_var - I_sec_var
 + O_pass_var + 88.05 O_score_var <= 0
TP000006: - I_batch_var - 41 I_cand_var - I_dist_var - I_sec_var + O_pass_var
 + 80.2 O_score_var <= 0
TP000048: - 2 I_batch_var - 53 I_cand_var - 2 I_dist_var - 2 I_sec_var
 + 0.77358490566 O_pass_var + 62.3 O_score_var <= 0
TP000098: - 6 I_batch_var - 179 I_cand_var - I_dist_var - 2 I_sec_var
 + 0.91061452514 O_pass_var + 66.25 O_score_var <= 0
TP000126: - 4 I_batch_var - 117 I_cand_var - I_dist_var - I_sec_var
 + O_pass_var + 84.75 O_score_var <= 0
TP000140: - 2 I_batch_var - 58 I_cand_var - I_dist_var - 2 I_sec_var
 + 0.48275862069 O_pass_var + 67.33 O_score_var <= 0
TP000187: - 6 I_batch_var - 173 I_cand_var - 5 I_dist_var - 3 I_sec_var
 + 0.947976878613 O_pass_var + 78.91 O_score_var <= 0
TP000194: - 7 I_batch_var - 183 I_cand_var - 2 I_dist_var - 2 I_sec_var
 + 0.928961748634 O_pass_var + 71.5 O_score_var <= 0
TP000241: - 13 I_batch_var - 344 I_cand_var - 2 I_dist_var - 3 I_sec_var
 + 0.845930232558 O_pass_var + 79.375 O_score_var <= 0
TP000433: - 2 I_batch_var - 51 I_cand_var - 2 I_dist_var - I_sec_var
 + 0.882352941176 O_pass_var + 73.86 O_score_var <= 0
TP000457: - 2 I_batch_var - 54 I_cand_var - 2 I_dist_var - I_sec_var
 + 0.888888888889 O_pass_var + 56.935 O_score_var <= 0
TP000464: - 2 I_batch_var - 59 I_cand_var - 2 I_dist_var - 2 I_sec_var
 + 0.728813559322 O_pass_var + 70.86 O_score_var <= 0
TP000545: - 5 I_batch_var - 125 I_cand_var - 3 I_dist_var - 3 I_sec_var
 + 0.976 O_pass_var + 85.43 O_score_var <= 0
TP001123: - 2 I_batch_var - 58 I_cand_var - I_dist_var - I_sec_var
 + 0.862068965517 O_pass_var + 74.56 O_score_var <= 0
TP001285: - 2 I_batch_var - 57 I_cand_var - I_dist_var - 2 I_sec_var
 + O_pass_var + 86 O_score_var <= 0
TP001765: - 5 I_batch_var - 143 I_cand_var - I_dist_var - 3 I_sec_var
 + 0.944055944056 O_pass_var + 80.56 O_score_var <= 0
TP003703: - I_batch_var - 27 I_cand_var - I_dist_var - I_sec_var
 + 0.925925925926 O_pass_var + 75.52 O_score_var <= 0
TP004391: - I_batch_var - 29 I_cand_var - I_dist_var - I_sec_var
 + 0.931034482759 O_pass_var + 82.36 O_score_var <= 0
TP010495: - 10 I_batch_var - 272 I_cand_var - 4 I_dist_var - 4 I_sec_var
 + 0.952205882353 O_pass_var + 78.125 O_score_var <= 0
TP014577: - I_batch_var - 50 I_cand_var - I_dist_var - I_sec_var
 + 0.98 O_pass_var + 76.845 O_score_var <= 0
TP014984: - 9 I_batch_var - 309 I_cand_var - I_dist_var - I_sec_var
 + 0.954692556634 O_pass_var + 73.7 O_score_var <= 0
TP015636: - I_batch_var - 21 I_cand_var - I_dist_var - I_sec_var
 + 0.571428571429 O_pass_var + 70.5 O_score_var <= 0
TP035479: - 3 I_batch_var - 92 I_cand_var - I_dist_var - 2 I_sec_var
 + 0.619565217391 O_pass_var + 69.33 O_score_var <= 0
TP044222: - I_batch_var - 29 I_cand_var - I_dist_var - I_sec_var
 + 0.206896551724 O_pass_var + 65.33 O_score_var <= 0
TP045368: - 2 I_batch_var - 53 I_cand_var - I_dist_var - I_sec_var
 + 0.962264150943 O_pass_var + 70 O_score_var <= 0
TP051538: - 5 I_batch_var - 125 I_cand_var - 2 I_dist_var - I_sec_var
 + 0.896 O_pass_var + 79.7 O_score_var <= 0
TP052111: - 2 I_batch_var - 47 I_cand_var - I_dist_var - I_sec_var
 + 0.936170212766 O_pass_var + 83.03 O_score_var <= 0
TP052114: - 54 I_batch_var - 2519 I_cand_var - 3 I_dist_var - I_sec_var
 + 0.998809051211 O_pass_var + 86.46 O_score_var <= 0
TP052117: - 6 I_batch_var - 240 I_cand_var - I_dist_var - I_sec_var
 + 0.954166666667 O_pass_var + 83.74 O_score_var <= 0
TP052118: - 13 I_batch_var - 361 I_cand_var - 7 I_dist_var - I_sec_var
 + 0.96675900277 O_pass_var + 61.9 O_score_var <= 0
TP052124: - I_batch_var - 30 I_cand_var - I_dist_var - I_sec_var
 + 0.966666666667 O_pass_var + 72.72 O_score_var <= 0
TP052215: - 21 I_batch_var - 858 I_cand_var - I_dist_var - I_sec_var
 + O_pass_var + 79.57 O_score_var <= 0
TP052232: - I_batch_var - 21 I_cand_var - I_dist_var - I_sec_var
 + 66 O_score_var <= 0
TP052292: - 23 I_batch_var - 749 I_cand_var - 4 I_dist_var - I_sec_var
 + 0.895861148198 O_pass_var + 79.27 O_score_var <= 0
TP056675: - 16 I_batch_var - 488 I_cand_var - 7 I_dist_var - 2 I_sec_var
 + 0.91393442623 O_pass_var + 67.05 O_score_var <= 0
TP10027: - I_batch_var - 10 I_cand_var - I_dist_var - I_sec_var + O_pass_var
 + 83.095 O_score_var <= 0
TP10110: - 5 I_batch_var - 68 I_cand_var - 5 I_dist_var - I_sec_var
 + 0.75 O_pass_var + 61.83 O_score_var <= 0
TP10151: - I_batch_var - I_cand_var - I_dist_var - I_sec_var + O_pass_var
 + 82.75 O_score_var <= 0
TP10301: - 2 I_batch_var - 60 I_cand_var - 2 I_dist_var - 2 I_sec_var
 + 0.95 O_pass_var + 74.585 O_score_var <= 0
TP10429: - I_batch_var - I_cand_var - I_dist_var - I_sec_var
 + 62.25 O_score_var <= 0
TP10544: - I_batch_var - 24 I_cand_var - I_dist_var - I_sec_var + O_pass_var
 + 85.09 O_score_var <= 0
TP10614: - 58 I_batch_var - 1175 I_cand_var - I_dist_var - 9 I_sec_var
 + 0.811063829787 O_pass_var + 75.19 O_score_var <= 0
TP10622: - I_batch_var - 22 I_cand_var - I_dist_var - I_sec_var + O_pass_var
 + 84.845 O_score_var <= 0
TP10867: - I_batch_var - 35 I_cand_var - I_dist_var - I_sec_var
 + 0.828571428571 O_pass_var + 62.57 O_score_var <= 0
TP11047: - 46 I_batch_var - 2241 I_cand_var - 6 I_dist_var - I_sec_var
 + O_pass_var + 75.42 O_score_var <= 0
TP11219: - I_batch_var - 22 I_cand_var - I_dist_var - I_sec_var + O_pass_var
 + 90.9 O_score_var <= 0
TP11576: - 36 I_batch_var - 860 I_cand_var - 6 I_dist_var - 2 I_sec_var
 + 0.920930232558 O_pass_var + 61 O_score_var <= 0
TP11592: - 7 I_batch_var - 254 I_cand_var - I_dist_var - I_sec_var
 + 0.984251968504 O_pass_var + 78.1 O_score_var <= 0
TP36959: - I_batch_var - 25 I_cand_var - I_dist_var - I_sec_var + O_pass_var
 + 73.09 O_score_var <= 0
TP37636: - 7 I_batch_var - 221 I_cand_var - 3 I_dist_var - 5 I_sec_var
 + 0.909502262443 O_pass_var + 74.51 O_score_var <= 0
TP37853: - 8 I_batch_var - 297 I_cand_var - 2 I_dist_var - 2 I_sec_var
 + 0.976430976431 O_pass_var + 80.75 O_score_var <= 0
TP37886: - 3 I_batch_var - 45 I_cand_var - 3 I_dist_var - I_sec_var
 + 0.688888888889 O_pass_var + 77.34 O_score_var <= 0
TP38067: - 2 I_batch_var - 16 I_cand_var - I_dist_var - I_sec_var + O_pass_var
 + 86.99 O_score_var <= 0
TP38072: - 2 I_batch_var - 59 I_cand_var - I_dist_var - I_sec_var
 + 0.932203389831 O_pass_var + 76 O_score_var <= 0
TP38113: - 31 I_batch_var - 1658 I_cand_var - 2 I_dist_var - I_sec_var
 + 0.945717732207 O_pass_var + 80.75 O_score_var <= 0
TP38163: - I_batch_var - 30 I_cand_var - I_dist_var - I_sec_var
 + 0.933333333333 O_pass_var + 79.25 O_score_var <= 0
TP38166: - 3 I_batch_var - 118 I_cand_var - 4 I_dist_var - 2 I_sec_var
 + 0.906779661017 O_pass_var + 82.58 O_score_var <= 0
TP38167: - 3 I_batch_var - 89 I_cand_var - I_dist_var - 2 I_sec_var
 + 0.887640449438 O_pass_var + 73.25 O_score_var <= 0
TP_16827: - 2 I_batch_var - 131 I_cand_var - I_dist_var - 2 I_sec_var
 + 0.832061068702 O_pass_var + 80 O_score_var <= 0
End
